17	4	3
12	24	19	19	21	37	33	
0	0	0	0	0	2	7	7	2	4	9	3	2	3	4
1	2	0	9	0	10	3	1	3	3	6	1	11
5	2	8	3	0	1	10	9	6	7	4	3	5	7	15
7	6	7	0	0	6	4	1	1	8	8	3	6	8	9
10	0	0	1	0	3	4	3	1	9	2	1	17
25	0	8	0	0	3	1	9	10	2	2	3	10	13	17
125	0	5	0	0	9	2	4	9	5	6	3	12	16	17
25	6	0	0	6	5	5	6	3	10	2	2	13	17
125	0	3	1	0	7	6	5	7	6	3	2	11	17
225	0	0	0	10	5	8	6	8	8	4	1	17
75	1	9	7	0	9	1	4	7	1	6	1	14
175	2	10	0	8	9	9	7	3	8	2	2	13	17
4	0	0	3	0	9	3	6	4	6	6	1	17
2	7	10	0	0	5	2	1	10	9	7	1	17
7	4	7	3	1	2	4	4	8	1	2	1	16
6	0	7	9	0	1	10	2	5	7	3	1	17
0	0	0	0	0	1	5	1	7	7	9	0
